<number of tasks>
58

<cycle time>
71

<task times>
1 10
2 53
3 41
4 36
5 35
6 17
7 34
8 23
9 14
10 52
11 33
12 34
13 12
14 52
15 12
16 33
17 44
18 7
19 15
20 13
21 29
22 37
23 43
24 23
25 24
26 9
27 16
28 12
29 26
30 22
31 51
32 47
33 34
34 23
35 12
36 52
37 12
38 33
39 44
40 7
41 15
42 13
43 29
44 37
45 43
46 23
47 24
48 9
49 16
50 12
51 26
52 12
53 52
54 12
55 33
56 44
57 7
58 15

<precedence relations>
1,9
2,25
3,21
3,22
4,10
5,36
6,23
6,24
7,43
8,44
9,11
11,13
11,14
11,15
12,17
13,17
14,17
15,17
16,18
17,20
18,19
19,23
20,21
20,25
21,26
21,44
22,27
23,31
24,31
25,38
26,29
27,30
28,32
28,33
29,31
30,34
31,36
32,45
33,35
34,36
35,43
36,37
36,38
37,39
37,40
37,41
38,52
39,43
40,43
41,42
42,43
43,45
44,45
45,46
45,48
45,49
46,47
46,50
47,51
48,55
49,58
50,58
51,52
52,53
53,54
54,55
54,56
55,57
56,57
57,58

<setup times forward>
1,2:5
1,3:4
1,4:2
1,5:2
1,6:5
1,7:6
1,8:7
1,9:2
1,10:2
1,12:2
1,16:1
1,18:3
1,19:2
1,22:3
1,23:6
1,24:2
1,27:6
1,30:1
1,33:3
1,34:1
1,35:2
2,1:5
2,3:9
2,4:3
2,5:3
2,7:11
2,8:12
2,9:7
2,10:7
2,11:4
2,12:7
2,13:5
2,14:8
2,15:8
2,16:4
2,17:5
2,18:8
2,19:7
2,20:5
2,21:9
2,22:2
2,23:11
2,24:7
2,25:4
2,26:11
2,27:11
2,28:5
2,29:6
2,30:6
2,31:3
2,32:5
2,33:2
2,34:6
2,35:3
2,36:1
2,37:1
2,39:12
2,44:11
2,45:6
2,46:4
2,47:4
2,48:9
2,49:1
2,50:9
2,51:1
3,1:4
3,2:9
3,4:6
3,5:6
3,6:9
3,7:2
3,8:3
3,9:2
3,10:2
3,11:5
3,12:2
3,13:4
3,14:1
3,15:1
3,16:5
3,17:4
3,18:1
3,19:2
3,20:4
3,22:7
3,23:2
3,24:2
3,25:5
3,28:4
3,32:4
3,33:7
3,35:6
4,1:2
4,2:3
4,3:6
4,6:3
4,7:8
4,8:9
4,9:4
4,10:4
4,11:1
4,12:4
4,13:2
4,14:5
4,15:5
4,16:1
4,17:2
4,18:5
4,19:4
4,20:2
4,21:6
4,22:1
4,23:8
4,24:4
4,25:1
4,26:8
4,27:8
4,28:2
4,29:3
4,30:3
4,32:2
4,33:1
4,34:3
4,36:2
4,37:2
4,38:2
4,39:9
4,40:3
4,41:3
4,42:3
4,43:3
4,44:8
4,45:3
4,46:1
4,47:1
4,48:6
4,49:2
4,50:6
4,51:2
4,52:2
4,53:2
4,54:6
4,55:6
4,56:1
4,57:1
4,58:1
5,1:2
5,2:3
5,3:6
5,6:3
5,7:8
5,8:9
5,9:4
5,10:4
5,11:1
5,12:4
5,13:2
5,14:5
5,15:5
5,16:1
5,17:2
5,18:5
5,19:4
5,20:2
5,21:6
5,22:1
5,23:8
5,24:4
5,25:1
5,26:8
5,27:8
5,28:2
5,29:3
5,30:3
5,32:2
5,33:1
5,34:3
5,36:2
5,44:8
6,1:5
6,3:9
6,4:3
6,5:3
6,7:11
6,8:12
6,9:7
6,10:7
6,11:4
6,12:7
6,13:5
6,14:8
6,15:8
6,16:4
6,17:5
6,18:8
6,19:7
6,20:5
6,21:9
6,22:2
6,23:11
6,24:7
6,25:4
6,26:11
6,27:11
6,28:5
6,29:6
6,30:6
6,32:5
6,33:2
6,34:6
6,35:3
6,44:11
7,1:6
7,2:11
7,3:2
7,4:8
7,5:8
7,6:11
7,8:1
7,9:4
7,10:4
7,11:7
7,12:4
7,13:6
7,14:3
7,15:3
7,16:7
7,17:6
7,18:3
7,19:4
7,20:6
7,21:2
7,22:9
7,24:4
7,25:7
7,28:6
7,29:5
7,30:5
7,31:8
7,32:6
7,33:9
7,34:5
7,35:8
7,36:10
7,37:10
7,38:10
7,39:1
7,40:11
7,41:11
7,42:11
7,43:11
8,1:7
8,2:12
8,3:3
8,4:9
8,5:9
8,6:12
8,7:1
8,9:5
8,10:5
8,11:8
8,12:5
8,13:7
8,14:4
8,15:4
8,16:8
8,17:7
8,18:4
8,19:5
8,20:7
8,21:3
8,22:10
8,23:1
8,24:5
8,25:8
8,26:1
8,27:1
8,28:7
8,29:6
8,30:6
8,31:9
8,32:7
8,33:10
8,34:6
8,35:9
8,36:11
8,37:11
8,38:11
8,40:12
8,41:12
8,42:12
8,43:12
8,44:1
9,2:7
9,3:2
9,4:4
9,5:4
9,6:7
9,7:4
9,8:5
9,11:3
9,16:3
9,18:1
9,22:5
9,23:4
9,27:4
9,28:2
9,30:1
9,32:2
9,33:5
9,34:1
9,35:4
10,1:2
10,2:7
10,3:2
10,5:4
10,6:7
10,7:4
10,8:5
10,11:3
10,13:2
10,14:1
10,15:1
10,16:3
10,17:2
10,18:1
10,20:2
10,21:2
10,22:5
10,23:4
10,25:3
10,26:4
10,27:4
10,28:2
10,29:1
10,30:1
10,31:4
10,32:2
10,33:5
10,34:1
10,35:4
10,36:6
10,37:6
10,38:6
10,39:5
10,40:7
10,41:7
10,42:7
10,43:7
10,44:4
10,45:1
10,46:3
10,47:3
10,48:2
10,49:6
10,50:2
10,51:6
10,52:6
10,53:6
10,54:2
10,55:2
10,56:5
10,57:5
10,58:5
11,2:4
11,3:5
11,4:1
11,5:1
11,6:4
11,7:7
11,8:8
11,10:3
11,12:3
11,13:1
11,14:4
11,15:4
11,18:4
11,19:3
11,22:2
11,23:7
11,24:3
11,27:7
11,28:1
11,30:2
11,32:1
11,33:2
11,34:2
11,35:1
12,1:2
12,2:7
12,3:2
12,4:4
12,5:4
12,6:7
12,7:4
12,8:5
12,11:3
12,13:2
12,14:1
12,15:1
12,16:3
12,17:2
12,18:1
12,22:5
12,23:4
12,27:4
12,28:2
12,30:1
12,32:2
12,33:5
12,34:1
12,35:4
13,2:5
13,3:4
13,4:2
13,5:2
13,6:5
13,7:6
13,8:7
13,10:2
13,12:2
13,14:3
13,15:3
13,16:1
13,18:3
13,19:2
13,22:3
13,23:6
13,24:2
13,27:6
13,30:1
13,33:3
13,34:1
13,35:2
14,2:8
14,3:1
14,4:5
14,5:5
14,6:8
14,7:3
14,8:4
14,10:1
14,12:1
14,13:3
14,16:4
14,17:3
14,19:1
14,22:6
14,23:3
14,24:1
14,27:3
14,28:3
14,30:2
14,32:3
14,33:6
14,34:2
14,35:5
15,2:8
15,3:1
15,4:5
15,5:5
15,6:8
15,7:3
15,8:4
15,10:1
15,12:1
15,13:3
15,16:4
15,17:3
15,19:1
15,22:6
15,23:3
15,24:1
15,27:3
15,28:3
15,30:2
15,32:3
15,33:6
15,34:2
15,35:5
16,1:1
16,2:4
16,3:5
16,4:1
16,5:1
16,6:4
16,7:7
16,8:8
16,9:3
16,10:3
16,12:3
16,13:1
16,14:4
16,15:4
16,17:1
16,18:4
16,20:1
16,21:5
16,22:2
16,24:3
16,26:7
16,27:7
16,28:1
16,29:2
16,30:2
16,32:1
16,33:2
16,34:2
16,35:1
16,44:7
17,2:5
17,3:4
17,4:2
17,5:2
17,6:5
17,7:6
17,8:7
17,10:2
17,16:1
17,18:3
17,19:2
17,22:3
17,23:6
17,24:2
17,27:6
17,30:1
17,33:3
17,34:1
17,35:2
18,1:3
18,2:8
18,3:1
18,4:5
18,5:5
18,6:8
18,7:3
18,8:4
18,9:1
18,10:1
18,11:4
18,12:1
18,13:3
18,17:3
18,19:1
18,20:3
18,21:1
18,22:6
18,24:1
18,25:4
18,26:3
18,27:3
18,28:3
18,29:2
18,30:2
18,32:3
18,33:6
18,34:2
18,35:5
18,44:3
19,1:2
19,2:7
19,3:2
19,4:4
19,5:4
19,6:7
19,7:4
19,8:5
19,11:3
19,13:2
19,14:1
19,15:1
19,17:2
19,20:2
19,21:2
19,22:5
19,23:4
19,25:3
19,26:4
19,27:4
19,28:2
19,29:1
19,30:1
19,32:2
19,33:5
19,34:1
19,35:4
19,44:4
20,2:5
20,3:4
20,4:2
20,5:2
20,6:5
20,7:6
20,8:7
20,10:2
20,16:1
20,18:3
20,19:2
20,21:4
20,22:3
20,23:6
20,24:2
20,25:1
20,27:6
20,30:1
20,33:3
20,34:1
20,35:2
21,2:9
21,4:6
21,5:6
21,6:9
21,7:2
21,8:3
21,10:2
21,16:5
21,18:1
21,19:2
21,22:7
21,23:2
21,24:2
21,25:5
21,26:2
21,27:2
21,28:4
21,30:3
21,32:4
21,33:7
21,34:3
21,35:6
21,44:2
22,1:3
22,2:2
22,4:1
22,5:1
22,6:2
22,7:9
22,8:10
22,9:5
22,10:5
22,11:2
22,12:5
22,13:3
22,14:6
22,15:6
22,16:2
22,17:3
22,18:6
22,19:5
22,20:3
22,21:7
22,23:9
22,24:5
22,25:2
22,26:9
22,27:9
22,28:3
22,29:4
22,31:1
22,32:3
22,35:1
22,44:9
23,1:6
23,2:11
23,3:2
23,4:8
23,5:8
23,8:1
23,9:4
23,10:4
23,11:7
23,12:4
23,13:6
23,14:3
23,15:3
23,17:6
23,20:6
23,21:2
23,22:9
23,24:4
23,25:7
23,28:6
23,29:5
23,30:5
23,31:8
23,32:6
23,33:9
23,34:5
23,35:8
24,1:2
24,2:7
24,3:2
24,4:4
24,5:4
24,7:4
24,8:5
24,11:3
24,13:2
24,14:1
24,15:1
24,16:3
24,17:2
24,18:1
24,20:2
24,21:2
24,22:5
24,23:4
24,25:3
24,26:4
24,27:4
24,28:2
24,29:1
24,30:1
24,31:4
24,32:2
24,33:5
24,34:1
24,35:4
24,44:4
25,3:5
25,4:1
25,5:1
25,6:4
25,7:7
25,8:8
25,10:3
25,18:4
25,19:3
25,21:5
25,22:2
25,23:7
25,24:3
25,26:7
25,27:7
25,28:1
25,29:2
25,30:2
25,31:1
25,32:1
25,33:2
25,34:2
25,35:1
25,36:3
25,37:3
25,38:3
25,39:8
25,40:4
25,41:4
25,42:4
25,43:4
25,44:7
25,45:2
25,48:5
25,49:3
25,50:5
25,51:3
26,2:11
26,4:8
26,5:8
26,6:11
26,8:1
26,10:4
26,16:7
26,18:3
26,19:4
26,22:9
26,24:4
26,25:7
26,28:6
26,29:5
26,30:5
26,32:6
26,33:9
26,34:5
26,35:8
27,1:6
27,2:11
27,4:8
27,5:8
27,6:11
27,8:1
27,9:4
27,10:4
27,11:7
27,12:4
27,13:6
27,14:3
27,15:3
27,16:7
27,17:6
27,18:3
27,19:4
27,20:6
27,21:2
27,24:4
27,25:7
27,28:6
27,29:5
27,30:5
27,31:8
27,32:6
27,33:9
27,35:8
28,2:5
28,3:4
28,4:2
28,5:2
28,6:5
28,7:6
28,8:7
28,9:2
28,10:2
28,11:1
28,12:2
28,14:3
28,15:3
28,16:1
28,18:3
28,19:2
28,21:4
28,22:3
28,23:6
28,24:2
28,25:1
28,26:6
28,27:6
28,29:1
28,30:1
28,31:2
28,33:3
28,34:1
28,36:4
28,37:4
28,38:4
28,39:7
28,40:5
28,41:5
28,42:5
28,44:6
29,2:6
29,4:3
29,5:3
29,6:6
29,7:5
29,8:6
29,10:1
29,16:2
29,18:2
29,19:1
29,22:4
29,23:5
29,24:1
29,25:2
29,27:5
29,28:1
29,31:3
29,32:1
29,33:4
29,35:3
29,44:5
30,1:1
30,2:6
30,4:3
30,5:3
30,6:6
30,7:5
30,8:6
30,9:1
30,10:1
30,11:2
30,12:1
30,13:1
30,14:2
30,15:2
30,16:2
30,17:1
30,18:2
30,19:1
30,20:1
30,21:3
30,23:5
30,24:1
30,25:2
30,26:5
30,28:1
30,31:3
30,32:1
30,33:4
30,35:3
30,44:5
31,2:3
31,7:8
31,8:9
31,10:4
31,22:1
31,25:1
31,27:8
31,28:2
31,30:3
31,32:2
31,33:1
31,34:3
31,36:2
31,44:8
32,2:5
32,3:4
32,4:2
32,5:2
32,6:5
32,7:6
32,8:7
32,9:2
32,10:2
32,11:1
32,12:2
32,14:3
32,15:3
32,16:1
32,18:3
32,19:2
32,21:4
32,22:3
32,23:6
32,24:2
32,25:1
32,26:6
32,27:6
32,29:1
32,30:1
32,31:2
32,33:3
32,34:1
32,35:2
32,36:4
32,37:4
32,38:4
32,39:7
32,40:5
32,41:5
32,42:5
32,43:5
32,44:6
32,45:1
33,1:3
33,2:2
33,3:7
33,4:1
33,5:1
33,6:2
33,7:9
33,8:10
33,9:5
33,10:5
33,11:2
33,12:5
33,13:3
33,14:6
33,15:6
33,16:2
33,17:3
33,18:6
33,19:5
33,20:3
33,21:7
33,23:9
33,24:5
33,25:2
33,26:9
33,27:9
33,29:4
33,30:4
33,31:1
33,32:3
33,34:4
33,35:1
33,36:1
33,37:1
33,38:1
33,39:10
33,40:2
33,41:2
33,42:2
33,44:9
34,1:1
34,2:6
34,4:3
34,5:3
34,6:6
34,7:5
34,8:6
34,9:1
34,10:1
34,11:2
34,12:1
34,13:1
34,14:2
34,15:2
34,16:2
34,17:1
34,18:2
34,19:1
34,20:1
34,21:3
34,23:5
34,24:1
34,25:2
34,26:5
34,28:1
34,31:3
34,32:1
34,33:4
34,35:3
34,36:5
34,44:5
35,1:2
35,2:3
35,3:6
35,6:3
35,7:8
35,8:9
35,9:4
35,10:4
35,11:1
35,12:4
35,13:2
35,14:5
35,15:5
35,16:1
35,17:2
35,18:5
35,19:4
35,20:2
35,21:6
35,22:1
35,23:8
35,24:4
35,25:1
35,26:8
35,27:8
35,29:3
35,30:3
35,32:2
35,34:3
35,36:2
35,37:2
35,38:2
35,39:9
35,40:3
35,41:3
35,42:3
35,43:3
35,44:8
36,2:1
36,4:2
36,7:10
36,8:11
36,10:6
36,25:3
36,28:4
36,32:4
36,33:1
36,35:2
36,44:10
37,2:1
37,4:2
37,7:10
37,8:11
37,10:6
37,25:3
37,28:4
37,32:4
37,33:1
37,35:2
37,39:11
37,40:1
37,41:1
37,44:10
38,4:2
38,7:10
38,8:11
38,10:6
38,28:4
38,32:4
38,33:1
38,35:2
38,39:11
38,40:1
38,41:1
38,42:1
38,43:1
38,44:10
38,45:5
38,46:3
38,47:3
38,48:8
38,50:8
39,2:12
39,4:9
39,7:1
39,10:5
39,25:8
39,28:7
39,32:7
39,33:10
39,35:9
39,38:11
39,40:12
39,41:12
39,42:12
39,43:12
39,44:1
40,4:3
40,7:11
40,8:12
40,10:7
40,25:4
40,28:5
40,32:5
40,33:2
40,35:3
40,38:1
40,39:12
40,44:11
41,4:3
41,7:11
41,8:12
41,10:7
41,25:4
41,28:5
41,32:5
41,33:2
41,35:3
41,38:1
41,39:12
41,44:11
42,4:3
42,7:11
42,8:12
42,10:7
42,25:4
42,28:5
42,32:5
42,33:2
42,35:3
42,38:1
42,39:12
42,44:11
43,4:3
43,8:12
43,10:7
43,25:4
43,32:5
43,38:1
43,44:11
43,45:6
44,2:11
44,4:8
44,5:8
44,6:11
44,10:4
44,16:7
44,18:3
44,19:4
44,22:9
44,24:4
44,25:7
44,28:6
44,29:5
44,30:5
44,31:8
44,32:6
44,33:9
44,34:5
44,35:8
44,36:10
44,37:10
44,38:10
44,39:1
44,40:11
44,41:11
44,42:11
44,43:11
44,45:5
45,2:6
45,4:3
45,10:1
45,25:2
45,38:5
45,46:2
45,48:3
45,49:5
46,2:4
46,4:1
46,10:3
46,38:3
46,48:5
46,49:3
46,50:5
47,2:4
47,4:1
47,10:3
47,38:3
47,48:5
47,49:3
47,50:5
47,51:3
48,2:9
48,4:6
48,10:2
48,25:5
48,38:8
48,46:5
48,47:5
48,49:8
48,51:8
48,52:8
48,53:8
48,56:7
49,2:1
49,4:2
49,10:6
49,25:3
49,46:3
49,47:3
49,48:8
49,50:8
49,54:8
49,55:8
49,56:1
49,57:1
49,58:1
50,2:9
50,4:6
50,10:2
50,25:5
50,38:8
50,47:5
50,49:8
50,51:8
50,52:8
50,53:8
50,56:7
50,57:7
50,58:7
51,2:1
51,4:2
51,10:6
51,25:3
51,48:8
51,50:8
52,4:2
52,10:6
52,48:8
52,50:8
53,4:2
53,10:6
53,48:8
53,50:8
53,54:8
54,4:6
54,10:2
54,49:8
54,56:7
55,4:6
55,10:2
55,49:8
55,56:7
55,57:7
56,4:1
56,10:5
56,48:7
56,49:1
56,50:7
56,55:7
57,4:1
57,10:5
57,49:1
57,50:7
58,4:1
58,10:5

<setup times backward>
1,3:4
1,7:6
1,8:7
1,10:2
1,12:2
1,18:3
1,19:2
1,23:6
1,24:2
1,27:6
1,30:1
1,34:1
2,1:5
2,3:9
2,4:3
2,5:3
2,7:11
2,8:12
2,9:7
2,10:7
2,11:4
2,12:7
2,13:5
2,14:8
2,15:8
2,16:4
2,17:5
2,18:8
2,19:7
2,20:5
2,21:9
2,22:2
2,23:11
2,24:7
2,26:11
2,27:11
2,28:5
2,29:6
2,30:6
2,31:3
2,32:5
2,33:2
2,34:6
2,35:3
2,36:1
2,37:1
2,39:12
2,44:11
2,45:6
2,46:4
2,47:4
2,48:9
2,49:1
2,50:9
2,51:1
3,7:2
3,8:3
3,23:2
4,1:2
4,3:6
4,7:8
4,8:9
4,9:4
4,11:1
4,12:4
4,13:2
4,14:5
4,15:5
4,16:1
4,17:2
4,18:5
4,19:4
4,20:2
4,21:6
4,23:8
4,24:4
4,25:1
4,26:8
4,27:8
4,28:2
4,29:3
4,30:3
4,32:2
4,34:3
4,39:9
4,44:8
4,45:3
4,46:1
4,47:1
4,48:6
4,50:6
4,54:6
4,55:6
5,1:2
5,3:6
5,7:8
5,8:9
5,9:4
5,10:4
5,11:1
5,12:4
5,13:2
5,14:5
5,15:5
5,16:1
5,17:2
5,18:5
5,19:4
5,20:2
5,21:6
5,23:8
5,24:4
5,25:1
5,26:8
5,27:8
5,28:2
5,29:3
5,30:3
5,32:2
5,34:3
5,44:8
6,1:5
6,3:9
6,4:3
6,5:3
6,7:11
6,8:12
6,9:7
6,10:7
6,11:4
6,12:7
6,13:5
6,14:8
6,15:8
6,16:4
6,17:5
6,18:8
6,19:7
6,20:5
6,21:9
6,22:2
6,25:4
6,26:11
6,27:11
6,28:5
6,29:6
6,30:6
6,32:5
6,33:2
6,34:6
6,35:3
6,44:11
7,8:1
7,39:1
9,3:2
9,7:4
9,8:5
9,18:1
9,23:4
9,27:4
10,3:2
10,7:4
10,8:5
10,14:1
10,15:1
10,18:1
10,21:2
10,23:4
10,26:4
10,27:4
10,39:5
10,44:4
10,48:2
10,50:2
10,54:2
10,55:2
11,1:1
11,3:5
11,7:7
11,8:8
11,9:3
11,10:3
11,12:3
11,18:4
11,19:3
11,23:7
11,24:3
11,27:7
11,28:1
11,30:2
11,32:1
11,34:2
12,3:2
12,7:4
12,8:5
12,14:1
12,15:1
12,18:1
12,23:4
12,27:4
13,3:4
13,7:6
13,8:7
13,9:2
13,10:2
13,12:2
13,14:3
13,15:3
13,18:3
13,19:2
13,23:6
13,24:2
13,27:6
13,30:1
13,34:1
14,3:1
14,7:3
14,8:4
14,23:3
14,27:3
15,3:1
15,7:3
15,8:4
15,23:3
15,27:3
16,1:1
16,3:5
16,7:7
16,8:8
16,9:3
16,10:3
16,12:3
16,13:1
16,14:4
16,15:4
16,17:1
16,20:1
16,21:5
16,24:3
16,26:7
16,27:7
16,28:1
16,29:2
16,30:2
16,32:1
16,34:2
16,44:7
17,3:4
17,7:6
17,8:7
17,9:2
17,10:2
17,12:2
17,14:3
17,15:3
17,18:3
17,19:2
17,23:6
17,24:2
17,27:6
17,30:1
17,34:1
18,3:1
18,7:3
18,8:4
18,21:1
18,26:3
18,27:3
18,44:3
19,3:2
19,7:4
19,8:5
19,14:1
19,15:1
19,18:1
19,21:2
19,26:4
19,27:4
19,44:4
20,3:4
20,7:6
20,8:7
20,9:2
20,10:2
20,12:2
20,14:3
20,15:3
20,18:3
20,19:2
20,23:6
20,24:2
20,27:6
20,30:1
20,34:1
21,7:2
21,8:3
21,23:2
21,27:2
22,1:3
22,3:7
22,4:1
22,5:1
22,7:9
22,8:10
22,9:5
22,10:5
22,11:2
22,12:5
22,13:3
22,14:6
22,15:6
22,16:2
22,17:3
22,18:6
22,19:5
22,20:3
22,21:7
22,23:9
22,24:5
22,25:2
22,26:9
22,28:3
22,29:4
22,31:1
22,32:3
22,35:1
22,44:9
23,8:1
24,3:2
24,7:4
24,8:5
24,14:1
24,15:1
24,18:1
24,21:2
24,23:4
24,26:4
24,27:4
24,44:4
25,1:1
25,3:5
25,7:7
25,8:8
25,9:3
25,10:3
25,12:3
25,13:1
25,14:4
25,15:4
25,17:1
25,18:4
25,19:3
25,20:1
25,21:5
25,23:7
25,24:3
25,26:7
25,27:7
25,28:1
25,29:2
25,30:2
25,32:1
25,34:2
25,39:8
25,44:7
25,45:2
25,48:5
25,50:5
26,8:1
27,8:1
28,3:4
28,7:6
28,8:7
28,9:2
28,10:2
28,12:2
28,14:3
28,15:3
28,18:3
28,19:2
28,21:4
28,23:6
28,24:2
28,26:6
28,27:6
28,29:1
28,30:1
28,34:1
28,39:7
28,44:6
29,3:3
29,7:5
29,8:6
29,9:1
29,10:1
29,12:1
29,14:2
29,15:2
29,18:2
29,19:1
29,21:3
29,23:5
29,24:1
29,26:5
29,27:5
29,44:5
30,3:3
30,7:5
30,8:6
30,9:1
30,10:1
30,12:1
30,14:2
30,15:2
30,18:2
30,19:1
30,21:3
30,23:5
30,24:1
30,26:5
30,27:5
30,44:5
31,1:2
31,3:6
31,7:8
31,8:9
31,9:4
31,10:4
31,11:1
31,12:4
31,13:2
31,14:5
31,15:5
31,16:1
31,17:2
31,18:5
31,19:4
31,20:2
31,21:6
31,23:8
31,24:4
31,25:1
31,26:8
31,27:8
31,28:2
31,29:3
31,30:3
31,32:2
31,34:3
31,44:8
32,3:4
32,7:6
32,8:7
32,9:2
32,10:2
32,12:2
32,14:3
32,15:3
32,18:3
32,19:2
32,21:4
32,23:6
32,24:2
32,26:6
32,27:6
32,29:1
32,30:1
32,34:1
32,39:7
32,44:6
33,1:3
33,3:7
33,4:1
33,5:1
33,7:9
33,8:10
33,9:5
33,10:5
33,11:2
33,12:5
33,13:3
33,14:6
33,15:6
33,16:2
33,17:3
33,18:6
33,19:5
33,20:3
33,21:7
33,23:9
33,24:5
33,25:2
33,26:9
33,27:9
33,28:3
33,29:4
33,30:4
33,31:1
33,32:3
33,34:4
33,39:10
33,44:9
34,3:3
34,7:5
34,8:6
34,9:1
34,10:1
34,12:1
34,14:2
34,15:2
34,18:2
34,19:1
34,21:3
34,23:5
34,24:1
34,26:5
34,27:5
34,44:5
35,1:2
35,3:6
35,7:8
35,8:9
35,9:4
35,10:4
35,11:1
35,12:4
35,13:2
35,14:5
35,15:5
35,16:1
35,17:2
35,18:5
35,19:4
35,20:2
35,21:6
35,23:8
35,24:4
35,25:1
35,26:8
35,27:8
35,28:2
35,29:3
35,30:3
35,32:2
35,34:3
35,39:9
35,44:8
36,1:4
36,3:8
36,4:2
36,5:2
36,7:10
36,8:11
36,9:6
36,10:6
36,11:3
36,12:6
36,13:4
36,14:7
36,15:7
36,16:3
36,17:4
36,18:7
36,19:6
36,20:4
36,21:8
36,22:1
36,23:10
36,24:6
36,25:3
36,26:10
36,27:10
36,28:4
36,29:5
36,30:5
36,31:2
36,32:4
36,33:1
36,34:5
36,35:2
36,44:10
37,1:4
37,3:8
37,4:2
37,5:2
37,7:10
37,8:11
37,9:6
37,10:6
37,11:3
37,12:6
37,13:4
37,14:7
37,15:7
37,16:3
37,17:4
37,18:7
37,19:6
37,20:4
37,21:8
37,22:1
37,23:10
37,24:6
37,25:3
37,26:10
37,27:10
37,28:4
37,29:5
37,30:5
37,31:2
37,32:4
37,33:1
37,34:5
37,35:2
37,44:10
38,1:4
38,3:8
38,4:2
38,5:2
38,7:10
38,8:11
38,9:6
38,10:6
38,11:3
38,12:6
38,13:4
38,14:7
38,15:7
38,16:3
38,17:4
38,18:7
38,19:6
38,20:4
38,21:8
38,22:1
38,23:10
38,24:6
38,25:3
38,26:10
38,27:10
38,28:4
38,29:5
38,30:5
38,31:2
38,32:4
38,33:1
38,34:5
38,35:2
38,39:11
38,44:10
38,45:5
38,46:3
38,47:3
38,48:8
38,50:8
40,1:5
40,3:9
40,4:3
40,5:3
40,7:11
40,8:12
40,9:7
40,10:7
40,11:4
40,12:7
40,13:5
40,14:8
40,15:8
40,16:4
40,17:5
40,18:8
40,19:7
40,20:5
40,21:9
40,22:2
40,23:11
40,24:7
40,25:4
40,26:11
40,27:11
40,28:5
40,29:6
40,30:6
40,31:3
40,32:5
40,33:2
40,34:6
40,35:3
40,36:1
40,37:1
40,38:1
40,39:12
40,44:11
41,1:5
41,3:9
41,4:3
41,5:3
41,7:11
41,8:12
41,9:7
41,10:7
41,11:4
41,12:7
41,13:5
41,14:8
41,15:8
41,16:4
41,17:5
41,18:8
41,19:7
41,20:5
41,21:9
41,22:2
41,23:11
41,24:7
41,25:4
41,26:11
41,27:11
41,28:5
41,29:6
41,30:6
41,31:3
41,32:5
41,33:2
41,34:6
41,35:3
41,36:1
41,37:1
41,38:1
41,39:12
41,44:11
42,1:5
42,3:9
42,4:3
42,5:3
42,7:11
42,8:12
42,9:7
42,10:7
42,11:4
42,12:7
42,13:5
42,14:8
42,15:8
42,16:4
42,17:5
42,18:8
42,19:7
42,20:5
42,21:9
42,22:2
42,23:11
42,24:7
42,25:4
42,26:11
42,27:11
42,28:5
42,29:6
42,30:6
42,31:3
42,32:5
42,33:2
42,34:6
42,35:3
42,36:1
42,37:1
42,38:1
42,39:12
42,44:11
43,1:5
43,3:9
43,4:3
43,5:3
43,7:11
43,8:12
43,9:7
43,10:7
43,11:4
43,12:7
43,13:5
43,14:8
43,15:8
43,16:4
43,17:5
43,18:8
43,19:7
43,20:5
43,21:9
43,22:2
43,23:11
43,24:7
43,25:4
43,26:11
43,27:11
43,28:5
43,29:6
43,30:6
43,31:3
43,32:5
43,33:2
43,34:6
43,35:3
43,36:1
43,37:1
43,38:1
43,39:12
43,44:11
44,8:1
44,39:1
45,3:3
45,7:5
45,8:6
45,9:1
45,10:1
45,12:1
45,14:2
45,15:2
45,18:2
45,19:1
45,21:3
45,23:5
45,24:1
45,26:5
45,27:5
45,39:6
45,44:5
46,1:1
46,3:5
46,7:7
46,8:8
46,9:3
46,10:3
46,12:3
46,13:1
46,14:4
46,15:4
46,17:1
46,18:4
46,19:3
46,20:1
46,21:5
46,23:7
46,24:3
46,26:7
46,27:7
46,28:1
46,29:2
46,30:2
46,32:1
46,34:2
46,39:8
46,44:7
46,45:2
46,48:5
47,1:1
47,3:5
47,7:7
47,8:8
47,9:3
47,10:3
47,12:3
47,13:1
47,14:4
47,15:4
47,17:1
47,18:4
47,19:3
47,20:1
47,21:5
47,23:7
47,24:3
47,26:7
47,27:7
47,28:1
47,29:2
47,30:2
47,32:1
47,34:2
47,39:8
47,44:7
47,45:2
47,48:5
47,50:5
48,7:2
48,8:3
48,23:2
48,26:2
48,27:2
48,39:3
48,44:2
49,1:4
49,3:8
49,4:2
49,5:2
49,7:10
49,8:11
49,9:6
49,10:6
49,11:3
49,12:6
49,13:4
49,14:7
49,15:7
49,16:3
49,17:4
49,18:7
49,19:6
49,20:4
49,21:8
49,22:1
49,23:10
49,24:6
49,25:3
49,26:10
49,27:10
49,28:4
49,29:5
49,30:5
49,31:2
49,32:4
49,33:1
49,34:5
49,35:2
49,39:11
49,44:10
49,45:5
49,46:3
49,47:3
49,48:8
49,50:8
49,54:8
49,55:8
49,56:1
49,57:1
50,7:2
50,8:3
50,23:2
50,26:2
50,27:2
50,39:3
50,44:2
51,1:4
51,3:8
51,4:2
51,5:2
51,7:10
51,8:11
51,9:6
51,10:6
51,11:3
51,12:6
51,13:4
51,14:7
51,15:7
51,16:3
51,17:4
51,18:7
51,19:6
51,20:4
51,21:8
51,22:1
51,23:10
51,24:6
51,25:3
51,26:10
51,27:10
51,28:4
51,29:5
51,30:5
51,31:2
51,32:4
51,33:1
51,34:5
51,35:2
51,39:11
51,44:10
51,45:5
51,46:3
51,47:3
51,48:8
51,50:8
52,1:4
52,3:8
52,4:2
52,5:2
52,7:10
52,8:11
52,9:6
52,10:6
52,11:3
52,12:6
52,13:4
52,14:7
52,15:7
52,16:3
52,17:4
52,18:7
52,19:6
52,20:4
52,21:8
52,22:1
52,23:10
52,24:6
52,25:3
52,26:10
52,27:10
52,28:4
52,29:5
52,30:5
52,31:2
52,32:4
52,33:1
52,34:5
52,35:2
52,39:11
52,44:10
52,45:5
52,46:3
52,47:3
52,48:8
52,50:8
53,1:4
53,3:8
53,4:2
53,5:2
53,7:10
53,8:11
53,9:6
53,10:6
53,11:3
53,12:6
53,13:4
53,14:7
53,15:7
53,16:3
53,17:4
53,18:7
53,19:6
53,20:4
53,21:8
53,22:1
53,23:10
53,24:6
53,25:3
53,26:10
53,27:10
53,28:4
53,29:5
53,30:5
53,31:2
53,32:4
53,33:1
53,34:5
53,35:2
53,39:11
53,44:10
53,45:5
53,46:3
53,47:3
53,48:8
53,50:8
54,7:2
54,8:3
54,23:2
54,26:2
54,27:2
54,39:3
54,44:2
55,7:2
55,8:3
55,23:2
55,26:2
55,27:2
55,39:3
55,44:2
56,1:3
56,3:7
56,4:1
56,5:1
56,7:9
56,8:10
56,9:5
56,10:5
56,11:2
56,12:5
56,13:3
56,14:6
56,15:6
56,16:2
56,17:3
56,18:6
56,19:5
56,20:3
56,21:7
56,23:9
56,24:5
56,25:2
56,26:9
56,27:9
56,28:3
56,29:4
56,30:4
56,31:1
56,32:3
56,34:4
56,35:1
56,39:10
56,44:9
56,45:4
56,46:2
56,47:2
56,48:7
56,50:7
56,54:7
56,55:7
57,1:3
57,3:7
57,4:1
57,5:1
57,7:9
57,8:10
57,9:5
57,10:5
57,11:2
57,12:5
57,13:3
57,14:6
57,15:6
57,16:2
57,17:3
57,18:6
57,19:5
57,20:3
57,21:7
57,23:9
57,24:5
57,25:2
57,26:9
57,27:9
57,28:3
57,29:4
57,30:4
57,31:1
57,32:3
57,34:4
57,35:1
57,39:10
57,44:9
57,45:4
57,46:2
57,47:2
57,48:7
57,50:7
57,54:7
57,55:7
58,1:3
58,3:7
58,4:1
58,5:1
58,7:9
58,8:10
58,9:5
58,10:5
58,11:2
58,12:5
58,13:3
58,14:6
58,15:6
58,16:2
58,17:3
58,18:6
58,19:5
58,20:3
58,21:7
58,23:9
58,24:5
58,25:2
58,26:9
58,27:9
58,28:3
58,29:4
58,30:4
58,31:1
58,32:3
58,34:4
58,35:1
58,39:10
58,44:9
58,45:4
58,46:2
58,47:2
58,48:7
58,50:7
58,54:7
58,55:7

<end>

<optimal SALBP-1 value>
23


<rand seed>
467321153

<Lower Bounds>
Lm1=22
Lms1=22
Lm2=16
Lm3=18
Lm4=22
Best=22

<Optimal Stations (Iterations: 10)>
29
